NAME : single.3316.tour
COMMENT : Length = 3316
COMMENT : Found by LKH [Keld Helsgaun] Sat Apr  9 17:22:31 2022
TYPE : TOUR
DIMENSION : 19
TOUR_SECTION
1
18
16
15
14
9
10
6
7
5
4
3
8
12
13
2
11
17
19
-1
EOF
